Gurobi Optimizer version 9.1.2 build v9.1.2rc0 (linux64)
Thread count: 36 physical cores, 72 logical processors, using up to 32 threads
Optimize a model with 12 rows, 57 columns and 590 nonzeros
Model fingerprint: 0xf32eec78
Model has 47 quadratic constraints
Coefficient statistics:
  Matrix range     [2e-05, 3e+00]
  QMatrix range    [1e+00, 1e+00]
  QLMatrix range   [1e+00, 1e+00]
  Objective range  [8e-03, 7e-01]
  Bounds range     [1e+00, 1e+00]
  RHS range        [1e+00, 1e+00]
Presolve removed 9 rows and 0 columns

Continuous model is non-convex -- solving as a MIP.

Presolve removed 9 rows and 0 columns
Presolve time: 0.00s
Presolved: 189 rows, 57 columns, 443 nonzeros
Presolved model has 47 bilinear constraint(s)
Variable types: 57 continuous, 0 integer (0 binary)

Root relaxation: objective -1.743721e+00, 44 iterations, 0.00 seconds

    Nodes    |    Current Node    |     Objective Bounds      |     Work
 Expl Unexpl |  Obj  Depth IntInf | Incumbent    BestBd   Gap | It/Node Time

     0     0   -1.74372    0   38          -   -1.74372      -     -    0s
H    0     0                       0.6147548   -1.74372   384%     -    0s
     0     0   -1.64739    0    1    0.61475   -1.64739   368%     -    0s
H    0     0                      -1.6450460   -1.64739  0.14%     -    0s
     0     0     cutoff    0        -1.64505   -1.64505  0.00%     -    0s

Cutting planes:
  RLT: 25
  BQP: 3

Explored 1 nodes (76 simplex iterations) in 0.01 seconds
Thread count was 32 (of 72 available processors)

Solution count 2: -1.64505 0.614755 
No other solutions better than -1.64505

Optimal solution found (tolerance 1.00e-04)
Best objective -1.645045978473e+00, best bound -1.645045978473e+00, gap 0.0000%

User-callback calls 78, time in user-callback 0.00 sec
Gurobi Optimizer version 9.1.2 build v9.1.2rc0 (linux64)
Thread count: 36 physical cores, 72 logical processors, using up to 32 threads
Optimize a model with 60 rows, 300 columns and 15500 nonzeros
Model fingerprint: 0xbd547f5c
Model has 250 quadratic constraints
Coefficient statistics:
  Matrix range     [1e-06, 4e+00]
  QMatrix range    [1e+00, 1e+00]
  QLMatrix range   [1e+00, 1e+00]
  Objective range  [3e-04, 1e+00]
  Bounds range     [1e+00, 1e+00]
  RHS range        [1e+00, 1e+00]
Presolve removed 11 rows and 0 columns

Continuous model is non-convex -- solving as a MIP.

Presolve removed 11 rows and 0 columns
Presolve time: 0.01s
Presolved: 1049 rows, 300 columns, 14161 nonzeros
Presolved model has 250 bilinear constraint(s)
Variable types: 300 continuous, 0 integer (0 binary)

Root relaxation: objective -2.830674e+01, 353 iterations, 0.02 seconds

    Nodes    |    Current Node    |     Objective Bounds      |     Work
 Expl Unexpl |  Obj  Depth IntInf | Incumbent    BestBd   Gap | It/Node Time

     0     0  -28.30674    0  209          -  -28.30674      -     -    0s
H    0     0                      -5.3522985  -28.30674   429%     -    0s
     0     0  -25.58507    0  222   -5.35230  -25.58507   378%     -    0s
     0     0  -25.04821    0  151   -5.35230  -25.04821   368%     -    0s
     0     0  -24.95285    0  137   -5.35230  -24.95285   366%     -    0s
     0     0  -24.94384    0  147   -5.35230  -24.94384   366%     -    0s
     0     0  -24.93750    0  151   -5.35230  -24.93750   366%     -    0s
     0     0  -24.93692    0  161   -5.35230  -24.93692   366%     -    0s
H    0     0                     -14.2092058  -24.93692  75.5%     -    0s
     0     0  -24.93682    0  161  -14.20921  -24.93682  75.5%     -    0s
     0     0  -24.93682    0  161  -14.20921  -24.93682  75.5%     -    0s
     0     2  -24.93682    0  161  -14.20921  -24.93682  75.5%     -    0s
* 1325  1421              67     -21.2250495  -23.37359  10.1%  62.6    1s
* 5196  1889              84     -21.2856958  -23.09879  8.52%  74.7    4s
* 5579  1882              91     -21.2857225  -23.09879  8.52%  74.3    4s
* 5586  1803              93     -21.2857302  -23.09879  8.52%  74.2    4s
* 5587  1729              93     -21.2857324  -23.09879  8.52%  74.2    4s
* 5716  1616              80     -21.4459541  -23.09879  7.71%  73.9    4s
* 5719  1548              81     -21.4459548  -23.09879  7.71%  73.9    4s
  6044  1557  -21.94925   25  138  -21.44595  -23.09879  7.71%  73.9    5s
* 6272  1543              68     -21.4463615  -23.09879  7.70%  73.7    5s
* 6328  1468              72     -21.4466586  -23.09879  7.70%  73.2    5s
* 6330  1468              73     -21.4466597  -23.09879  7.70%  73.2    5s
* 6494  1602              77     -21.4469345  -23.09879  7.70%  72.8    5s
* 6495  1602              77     -21.4469404  -23.09879  7.70%  72.8    5s
* 6555  1602              77     -21.4561960  -23.09879  7.66%  72.5    5s
* 6556  1602              77     -21.4561970  -23.09879  7.66%  72.4    5s
* 6596  1602              88     -21.5830006  -23.09879  7.02%  72.6    5s
* 6606  1602              90     -21.5830014  -23.09879  7.02%  72.5    5s
* 7675  1838             114     -21.8824989  -23.09879  5.56%  72.9    5s
* 8250  1785             102     -21.9154224  -23.09879  5.40%  73.1    5s
* 8254  1785             105     -21.9154225  -23.09879  5.40%  73.1    5s
* 8256  1785             106     -21.9154226  -23.09879  5.40%  73.1    5s
* 8258  1785             107     -21.9154226  -23.09879  5.40%  73.1    5s
* 8259  1785             107     -21.9154237  -23.09879  5.40%  73.1    5s
* 8529  1729             108     -21.9158416  -23.09879  5.40%  73.1    5s
* 8530  1729             108     -21.9158446  -23.09879  5.40%  73.1    5s
* 8703  1729              92     -21.9197936  -23.09879  5.38%  72.8    5s
* 8713  1729              93     -21.9197936  -23.09879  5.38%  72.7    5s
* 8822  1684              90     -21.9199990  -23.09879  5.38%  73.1    5s
* 8829  1684              90     -21.9200136  -23.09879  5.38%  73.0    5s
* 8862  1684              83     -21.9225769  -23.09879  5.37%  73.2    5s
*10706  1690              89     -21.9227639  -22.90239  4.47%  76.9    6s
*10707  1690              89     -21.9227643  -22.90239  4.47%  76.9    6s
*10709  1690              89     -21.9227737  -22.90239  4.47%  76.9    6s
*10710  1690              89     -21.9227743  -22.90239  4.47%  76.9    6s
*10713  1690              89     -21.9227997  -22.90239  4.47%  76.8    6s
*13204  1862              91     -21.9228700  -22.54747  2.85%  78.6    7s
*13207  1862              90     -21.9228738  -22.54747  2.85%  78.6    7s
*13674  1935             106     -21.9266082  -22.52137  2.71%  78.0    7s
*13675  1935             106     -21.9266103  -22.52137  2.71%  78.0    7s
*13676  1935             105     -21.9266127  -22.52137  2.71%  78.0    7s
*13677  1935             104     -21.9266149  -22.52137  2.71%  78.0    7s
*13678  1935             103     -21.9266171  -22.52137  2.71%  78.0    7s
*14165  1999             102     -22.0409763  -22.47790  1.98%  76.8    8s
*14662  1999              80     -22.0526702  -22.46578  1.87%  75.6    8s
*14687  1999              87     -22.0526776  -22.46578  1.87%  75.5    8s
*14862  1723              74     -22.0527699  -22.43119  1.72%  75.3    8s
*14863  1723              74     -22.0527699  -22.43119  1.72%  75.3    8s
*14871  1723              75     -22.0527910  -22.43119  1.72%  75.3    8s
*16256  2135              69     -22.0561819  -22.42395  1.67%  73.6    8s
*16257  2135              69     -22.0562977  -22.42395  1.67%  73.6    8s
*16938  2567             104     -22.1195458  -22.34185  1.01%  72.1    8s
*17307  2567             111     -22.1825262  -22.33198  0.67%  71.1    8s
*17371  2567              77     -22.1829653  -22.33198  0.67%  71.0    8s
*17372  2567              77     -22.1829654  -22.33198  0.67%  70.9    8s
*19223  2178              67     -22.1831067  -22.26890  0.39%  66.6    8s
*19421  3076              83     -22.1835004  -22.25718  0.33%  66.1    9s
*19423  3076              82     -22.1835100  -22.25718  0.33%  66.1    9s
*19657  3076              68     -22.1977681  -22.25718  0.27%  65.5    9s
*19660  3076              69     -22.1977683  -22.25718  0.27%  65.5    9s
*20219  3076              94     -22.2073427  -22.25718  0.22%  63.9    9s
*20560  3076              69     -22.2092507  -22.25718  0.22%  63.0    9s
*20992  3076              87     -22.2107881  -22.25718  0.21%  62.0    9s
*21171  1834              50     -22.2140368  -22.24677  0.15%  61.7    9s
*22413   708              60     -22.2140623  -22.22507  0.05%  59.4    9s
*22414   708              60     -22.2140644  -22.22507  0.05%  59.4    9s
*22415   708              59     -22.2140667  -22.22507  0.05%  59.4    9s
*22762   708              65     -22.2142020  -22.22110  0.03%  58.6    9s
*23194   708              62     -22.2142098  -22.22110  0.03%  57.5    9s
*23197   708              63     -22.2142101  -22.22110  0.03%  57.5    9s
*23199   708              64     -22.2142102  -22.22110  0.03%  57.5    9s
*23200   708              64     -22.2142104  -22.22110  0.03%  57.5    9s
*23354   708              57     -22.2142167  -22.22110  0.03%  57.2    9s
*24115   825              59     -22.2142170  -22.21597  0.01%  55.5    9s
*24118   825              59     -22.2142233  -22.21597  0.01%  55.5    9s
*24122   825              61     -22.2142240  -22.21597  0.01%  55.4    9s
*24249   825              61     -22.2143506  -22.21501  0.00%  55.2    9s
*24403   825              61     -22.2144147  -22.21469  0.00%  54.9    9s
*24471   825              58     -22.2145437  -22.21469  0.00%  54.7    9s

Explored 25416 nodes (1343351 simplex iterations) in 9.76 seconds
Thread count was 32 (of 72 available processors)

Solution count 10: -22.2145 -22.2144 -22.2144 ... -22.2141

Optimal solution found (tolerance 1.00e-04)
Best objective -2.221454373327e+01, best bound -2.221469136754e+01, gap 0.0007%

User-callback calls 51968, time in user-callback 0.01 sec



objective value: -22.214543733270613
objective bound: -22.21469136754289
x_opt: [0.0, 1.0, 1.0, 1.0, 0.13722101553616836, 1.0, 1.0, 1.0, 0.24403155372864352, 0.0, 0.0, 0.0, 0.0, 1.0, 1.0, 1.0, 0.47386838875109993, 1.0, 0.0, 0.0, 0.0, 1.0, 1.0, 1.0, 0.10174672816359513, 0.0, 1.0, 0.0, 0.0, 0.6904659870895556, 0.0, 1.0, 0.44099149250644, 1.0, 1.0, 1.0, 1.0, 0.48984762971779033, 1.0, 1.0, 0.398528901807061, 5.08555544202028e-6, 0.18280972025617517, 0.0, 0.0, 0.17298784127187705, 7.245530490950534e-5, 1.0, 0.0, 1.0]
GUROBI solution time: 9.764681100845337

